#######################################################
#CASTEP cell file: GaAs.cell
#Created using the Atomic Simulation Environment (ASE)#
#######################################################

%BLOCK LATTICE_CART
ang
 2.875     2.875     0.
 2.875     0.        2.875
 0.        2.875     2.875
%ENDBLOCK LATTICE_CART

%BLOCK POSITIONS_FRAC
Ga  0.000000  0.000000  0.000000
As  0.75  0.75  0.75
%ENDBLOCK POSITIONS_FRAC

!SYMMETRY_GENERATE 

kpoints_mp_spacing 0.07

%BLOCK SPECIES_POT

As As_C19_LDA_OTF.usp
Ga Ga_C19_LDA_OTF.usp
%ENDBLOCK SPECIES_POT

%BLOCK symmetry_ops
# Symm. op. 1       E
          1.000000000000000       0.000000000000000       0.000000000000000
          0.000000000000000       1.000000000000000      -0.000000000000000
         -0.000000000000000      -0.000000000000000       1.000000000000000
          0.000000000000000       0.000000000000000      -0.000000000000000
# Symm. op. 2      -4
         -0.000000000000000      -1.000000000000000       0.000000000000000
          1.000000000000000       0.000000000000000       0.000000000000000
          0.000000000000000       0.000000000000000      -1.000000000000000
          0.000000000000000       0.000000000000000      -0.000000000000000
# Symm. op. 3       2
         -1.000000000000000      -0.000000000000000      -0.000000000000000
         -0.000000000000000      -1.000000000000000       0.000000000000000
         -0.000000000000000      -0.000000000000000       1.000000000000000
          0.000000000000000       0.000000000000000      -0.000000000000000
# Symm. op. 4      -4
          0.000000000000000       1.000000000000000      -0.000000000000000
         -1.000000000000000      -0.000000000000000      -0.000000000000000
          0.000000000000000       0.000000000000000      -1.000000000000000
          0.000000000000000       0.000000000000000      -0.000000000000000
# Symm. op. 5       2
          1.000000000000000       0.000000000000000       0.000000000000000
         -0.000000000000000      -1.000000000000000       0.000000000000000
          0.000000000000000       0.000000000000000      -1.000000000000000
          0.000000000000000       0.000000000000000      -0.000000000000000
# Symm. op. 6       m
          0.000000000000000       1.000000000000000      -0.000000000000000
          1.000000000000000       0.000000000000000       0.000000000000000
         -0.000000000000000      -0.000000000000000       1.000000000000000
          0.000000000000000       0.000000000000000      -0.000000000000000
# Symm. op. 7       2
         -1.000000000000000      -0.000000000000000      -0.000000000000000
          0.000000000000000       1.000000000000000      -0.000000000000000
          0.000000000000000       0.000000000000000      -1.000000000000000
          0.000000000000000       0.000000000000000      -0.000000000000000
# Symm. op. 8       m
         -0.000000000000000      -1.000000000000000       0.000000000000000
         -1.000000000000000      -0.000000000000000      -0.000000000000000
         -0.000000000000000      -0.000000000000000       1.000000000000000
          0.000000000000000       0.000000000000000      -0.000000000000000
# Symm. op. 9       3
          0.000000000000000       1.000000000000000      -0.000000000000000
         -0.000000000000000      -0.000000000000000       1.000000000000000
          1.000000000000000       0.000000000000000       0.000000000000000
          0.000000000000000       0.000000000000000      -0.000000000000000
# Symm. op. 10      m
          0.000000000000000       0.000000000000000      -1.000000000000000
          0.000000000000000       1.000000000000000      -0.000000000000000
         -1.000000000000000      -0.000000000000000      -0.000000000000000
          0.000000000000000       0.000000000000000      -0.000000000000000
# Symm. op. 11      3
         -0.000000000000000      -1.000000000000000       0.000000000000000
          0.000000000000000       0.000000000000000      -1.000000000000000
          1.000000000000000       0.000000000000000       0.000000000000000
          0.000000000000000       0.000000000000000      -0.000000000000000
# Symm. op. 12     -4
         -0.000000000000000      -0.000000000000000       1.000000000000000
         -0.000000000000000      -1.000000000000000       0.000000000000000
         -1.000000000000000      -0.000000000000000      -0.000000000000000
          0.000000000000000       0.000000000000000      -0.000000000000000
# Symm. op. 13      3
          0.000000000000000       1.000000000000000      -0.000000000000000
          0.000000000000000       0.000000000000000      -1.000000000000000
         -1.000000000000000      -0.000000000000000      -0.000000000000000
          0.000000000000000       0.000000000000000      -0.000000000000000
# Symm. op. 14      m
         -0.000000000000000      -0.000000000000000       1.000000000000000
          0.000000000000000       1.000000000000000      -0.000000000000000
          1.000000000000000       0.000000000000000       0.000000000000000
          0.000000000000000       0.000000000000000      -0.000000000000000
# Symm. op. 15      3
         -0.000000000000000      -1.000000000000000       0.000000000000000
         -0.000000000000000      -0.000000000000000       1.000000000000000
         -1.000000000000000      -0.000000000000000      -0.000000000000000
          0.000000000000000       0.000000000000000      -0.000000000000000
# Symm. op. 16     -4
          0.000000000000000       0.000000000000000      -1.000000000000000
         -0.000000000000000      -1.000000000000000       0.000000000000000
          1.000000000000000       0.000000000000000       0.000000000000000
          0.000000000000000       0.000000000000000      -0.000000000000000
# Symm. op. 17      3
         -0.000000000000000      -0.000000000000000       1.000000000000000
          1.000000000000000       0.000000000000000       0.000000000000000
          0.000000000000000       1.000000000000000      -0.000000000000000
          0.000000000000000       0.000000000000000      -0.000000000000000
# Symm. op. 18     -4
         -1.000000000000000      -0.000000000000000      -0.000000000000000
         -0.000000000000000      -0.000000000000000       1.000000000000000
         -0.000000000000000      -1.000000000000000       0.000000000000000
          0.000000000000000       0.000000000000000      -0.000000000000000
# Symm. op. 19      3
          0.000000000000000       0.000000000000000      -1.000000000000000
         -1.000000000000000      -0.000000000000000      -0.000000000000000
          0.000000000000000       1.000000000000000      -0.000000000000000
          0.000000000000000       0.000000000000000      -0.000000000000000
# Symm. op. 20      m
          1.000000000000000       0.000000000000000       0.000000000000000
          0.000000000000000       0.000000000000000      -1.000000000000000
         -0.000000000000000      -1.000000000000000       0.000000000000000
          0.000000000000000       0.000000000000000      -0.000000000000000
# Symm. op. 21      3
         -0.000000000000000      -0.000000000000000       1.000000000000000
         -1.000000000000000      -0.000000000000000      -0.000000000000000
         -0.000000000000000      -1.000000000000000       0.000000000000000
          0.000000000000000       0.000000000000000      -0.000000000000000
# Symm. op. 22      m
          1.000000000000000       0.000000000000000       0.000000000000000
         -0.000000000000000      -0.000000000000000       1.000000000000000
          0.000000000000000       1.000000000000000      -0.000000000000000
          0.000000000000000       0.000000000000000      -0.000000000000000
# Symm. op. 23      3
          0.000000000000000       0.000000000000000      -1.000000000000000
          1.000000000000000       0.000000000000000       0.000000000000000
         -0.000000000000000      -1.000000000000000       0.000000000000000
          0.000000000000000       0.000000000000000      -0.000000000000000
# Symm. op. 24     -4
         -1.000000000000000      -0.000000000000000      -0.000000000000000
          0.000000000000000       0.000000000000000      -1.000000000000000
          0.000000000000000       1.000000000000000      -0.000000000000000
          0.000000000000000       0.000000000000000      -0.000000000000000
%ENDBLOCK symmetry_ops

